NAME          DCAP_2_4_3_300_SS93
ROWS
 N  OBJ
 L  CON1
 L  CON2
 L  CON3
 L  CON4
 L  CON5
 L  CON6
 L  CON7
 L  CON8
 L  CON9
 L  CON10
 L  CON11
 L  CON12
 E  CON13
 E  CON14
 E  CON15
 E  CON16
 E  CON17
 E  CON18
 E  CON19
 E  CON20
 E  CON21
 E  CON22
 E  CON23
 E  CON24
COLUMNS
    x[1,1]    OBJ       6.180167      CON1      1.000000    
    x[1,1]    CON7      -1.000000     CON8      -1.000000   
    x[1,1]    CON9      -1.000000   
    x[1,2]    OBJ       6.563535      CON2      1.000000    
    x[1,2]    CON8      -1.000000     CON9      -1.000000   
    x[1,3]    OBJ       7.443064      CON3      1.000000    
    x[1,3]    CON9      -1.000000   
    x[2,1]    OBJ       6.732585      CON4      1.000000    
    x[2,1]    CON10     -1.000000     CON11     -1.000000   
    x[2,1]    CON12     -1.000000   
    x[2,2]    OBJ       5.039546      CON5      1.000000    
    x[2,2]    CON11     -1.000000     CON12     -1.000000   
    x[2,3]    OBJ       6.054841      CON6      1.000000    
    x[2,3]    CON12     -1.000000   
    MARKER    'MARKER'                'INTORG'
    u[1,1]    OBJ       48.076654     CON1      -1.000000   
    u[1,2]    OBJ       20.066487     CON2      -1.000000   
    u[1,3]    OBJ       32.230043     CON3      -1.000000   
    u[2,1]    OBJ       49.996186     CON4      -1.000000   
    u[2,2]    OBJ       49.466655     CON5      -1.000000   
    u[2,3]    OBJ       27.484319     CON6      -1.000000   
    y[1,1,1]  OBJ       5.979938      CON7      1.178670    
    y[1,1,1]  CON13     1.000000    
    y[1,1,2]  OBJ       7.114131      CON8      1.336031    
    y[1,1,2]  CON14     1.000000    
    y[1,1,3]  OBJ       8.118246      CON9      0.554166    
    y[1,1,3]  CON15     1.000000    
    y[1,2,1]  OBJ       5.736901      CON7      0.738468    
    y[1,2,1]  CON16     1.000000    
    y[1,2,2]  OBJ       5.714989      CON8      1.026672    
    y[1,2,2]  CON17     1.000000    
    y[1,2,3]  OBJ       8.173715      CON9      0.611331    
    y[1,2,3]  CON18     1.000000    
    y[1,3,1]  OBJ       7.867314      CON7      1.122008    
    y[1,3,1]  CON19     1.000000    
    y[1,3,2]  OBJ       9.123324      CON8      0.965637    
    y[1,3,2]  CON20     1.000000    
    y[1,3,3]  OBJ       7.759021      CON9      0.902396    
    y[1,3,3]  CON21     1.000000    
    y[1,4,1]  OBJ       5.371576      CON7      0.513847    
    y[1,4,1]  CON22     1.000000    
    y[1,4,2]  OBJ       8.309841      CON8      1.085087    
    y[1,4,2]  CON23     1.000000    
    y[1,4,3]  OBJ       9.146094      CON9      1.371974    
    y[1,4,3]  CON24     1.000000    
    y[2,1,1]  OBJ       8.258792      CON10     1.178670    
    y[2,1,1]  CON13     1.000000    
    y[2,1,2]  OBJ       6.568584      CON11     1.336031    
    y[2,1,2]  CON14     1.000000    
    y[2,1,3]  OBJ       5.136429      CON12     0.554166    
    y[2,1,3]  CON15     1.000000    
    y[2,2,1]  OBJ       7.930295      CON10     0.738468    
    y[2,2,1]  CON16     1.000000    
    y[2,2,2]  OBJ       6.592654      CON11     1.026672    
    y[2,2,2]  CON17     1.000000    
    y[2,2,3]  OBJ       5.232983      CON12     0.611331    
    y[2,2,3]  CON18     1.000000    
    y[2,3,1]  OBJ       5.781294      CON10     1.122008    
    y[2,3,1]  CON19     1.000000    
    y[2,3,2]  OBJ       5.586594      CON11     0.965637    
    y[2,3,2]  CON20     1.000000    
    y[2,3,3]  OBJ       5.432381      CON12     0.902396    
    y[2,3,3]  CON21     1.000000    
    y[2,4,1]  OBJ       9.481627      CON10     0.513847    
    y[2,4,1]  CON22     1.000000    
    y[2,4,2]  OBJ       6.642139      CON11     1.085087    
    y[2,4,2]  CON23     1.000000    
    y[2,4,3]  OBJ       7.478731      CON12     1.371974    
    y[2,4,3]  CON24     1.000000    
    z[1,1]    OBJ       553.413400    CON13     1.000000    
    z[1,2]    OBJ       600.574998    CON14     1.000000    
    z[1,3]    OBJ       777.938398    CON15     1.000000    
    z[2,1]    OBJ       735.536287    CON16     1.000000    
    z[2,2]    OBJ       572.699254    CON17     1.000000    
    z[2,3]    OBJ       626.827086    CON18     1.000000    
    z[3,1]    OBJ       842.870946    CON19     1.000000    
    z[3,2]    OBJ       795.823224    CON20     1.000000    
    z[3,3]    OBJ       546.480965    CON21     1.000000    
    z[4,1]    OBJ       988.005251    CON22     1.000000    
    z[4,2]    OBJ       720.568119    CON23     1.000000    
    z[4,3]    OBJ       747.092530    CON24     1.000000    
    MARKER    'MARKER'                 'INTEND'
RHS
    RHS       CON1      -0.000000     CON2      -0.000000   
    RHS       CON3      -0.000000     CON4      -0.000000   
    RHS       CON5      -0.000000     CON6      -0.000000   
    RHS       CON7      -0.000000     CON8      -0.000000   
    RHS       CON9      -0.000000     CON10     -0.000000   
    RHS       CON11     -0.000000     CON12     -0.000000   
    RHS       CON13     1.000000      CON14     1.000000    
    RHS       CON15     1.000000      CON16     1.000000    
    RHS       CON17     1.000000      CON18     1.000000    
    RHS       CON19     1.000000      CON20     1.000000    
    RHS       CON21     1.000000      CON22     1.000000    
    RHS       CON23     1.000000      CON24     1.000000    
BOUNDS
 BV BOUND     u[1,1]  
 BV BOUND     u[1,2]  
 BV BOUND     u[1,3]  
 BV BOUND     u[2,1]  
 BV BOUND     u[2,2]  
 BV BOUND     u[2,3]  
 BV BOUND     y[1,1,1]
 BV BOUND     y[1,1,2]
 BV BOUND     y[1,1,3]
 BV BOUND     y[1,2,1]
 BV BOUND     y[1,2,2]
 BV BOUND     y[1,2,3]
 BV BOUND     y[1,3,1]
 BV BOUND     y[1,3,2]
 BV BOUND     y[1,3,3]
 BV BOUND     y[1,4,1]
 BV BOUND     y[1,4,2]
 BV BOUND     y[1,4,3]
 BV BOUND     y[2,1,1]
 BV BOUND     y[2,1,2]
 BV BOUND     y[2,1,3]
 BV BOUND     y[2,2,1]
 BV BOUND     y[2,2,2]
 BV BOUND     y[2,2,3]
 BV BOUND     y[2,3,1]
 BV BOUND     y[2,3,2]
 BV BOUND     y[2,3,3]
 BV BOUND     y[2,4,1]
 BV BOUND     y[2,4,2]
 BV BOUND     y[2,4,3]
 BV BOUND     z[1,1]  
 BV BOUND     z[1,2]  
 BV BOUND     z[1,3]  
 BV BOUND     z[2,1]  
 BV BOUND     z[2,2]  
 BV BOUND     z[2,3]  
 BV BOUND     z[3,1]  
 BV BOUND     z[3,2]  
 BV BOUND     z[3,3]  
 BV BOUND     z[4,1]  
 BV BOUND     z[4,2]  
 BV BOUND     z[4,3]  
ENDATA
